Normalized Data/p02_12_normalized_split0.vrp
NAME:p02_12_NORMALIZED_split
BEST_KNOWN: 0
COMMENT: 0
DIMENSION: 289
CAPACITY: 100
EDGE_WEIGHT_FORMAT: FUNCTION
EDGE_WEIGHT_TYPE: EXACT_2D
NODE_COORD_SECTION
1 0.00000 0.00000
2 23 15
3 23 15
4 50 12
5 50 12
6 50 12
7 50 12
8 -16 -36
9 -16 -36
10 -16 -36
11 -16 -36
12 -16 -36
13 48 -5
14 48 -5
15 48 -5
16 -20 31
17 -20 31
18 -20 31
19 -43 -13
20 -43 -13
21 -43 -13
22 -43 -13
23 -14 18
24 -14 18
25 -14 18
26 -14 18
27 -14 18
28 -50 36
29 -50 36
30 -50 36
31 -50 36
32 -8 5
33 -8 5
34 -8 5
35 43 -26
36 43 -26
37 43 -26
38 43 -26
39 6 -49
40 6 -49
41 6 -49
42 44 21
43 44 21
44 44 21
45 44 21
46 44 21
47 12 36
48 12 36
49 12 36
50 -40 8
51 -40 8
52 -40 8
53 -40 8
54 -40 18
55 -40 18
56 -40 18
57 -44 1
58 -44 1
59 0 -36
60 0 -36
61 0 -36
62 0 -36
63 0 -36
64 20 -48
65 20 -48
66 20 -48
67 20 -48
68 -42 -41
69 -42 -41
70 -42 -41
71 18 -18
72 18 -18
73 18 -18
74 18 -18
75 18 -18
76 50 -23
77 50 -23
78 50 -23
79 50 -23
80 50 -23
81 50 -23
82 10 -32
83 10 -32
84 10 -32
85 10 -32
86 -48 -47
87 -48 -47
88 -48 -47
89 -48 -47
90 9 -38
91 9 -38
92 9 -38
93 -17 -16
94 -17 -16
95 -17 -16
96 -17 -16
97 -17 -16
98 -10 44
99 -10 44
100 -10 44
101 -10 44
102 -10 44
103 -10 44
104 -50 27
105 -50 27
106 -50 27
107 -50 27
108 -50 27
109 -50 27
110 -50 27
111 -9 -26
112 -9 -26
113 -9 -26
114 0 0
115 0 0
116 0 0
117 0 0
118 -48 5
119 -48 5
120 -48 5
121 -48 5
122 -48 5
123 -48 5
124 -37 22
125 -37 22
126 -37 22
127 -37 22
128 -37 22
129 48 -37
130 48 -37
131 48 -37
132 48 -37
133 48 -37
134 48 -37
135 -12 -21
136 -12 -21
137 -12 -21
138 -12 -21
139 -12 -21
140 -12 -21
141 -12 -21
142 46 23
143 46 23
144 -37 -16
145 -37 -16
146 -20 -21
147 -20 -21
148 -20 -21
149 48 -37
150 48 -37
151 48 -37
152 48 -37
153 48 -37
154 48 -37
155 48 -37
156 -18 -5
157 -18 -5
158 -18 -5
159 -18 -5
160 -18 -5
161 -18 -5
162 19 -15
163 19 -15
164 19 -15
165 19 -15
166 19 -15
167 19 -15
168 37 9
169 37 9
170 37 9
171 37 9
172 5 34
173 5 34
174 5 34
175 5 34
176 5 34
177 -5 31
178 -5 31
179 -5 31
180 -5 31
181 -36 -47
182 -36 -47
183 37 -43
184 37 -43
185 37 -43
186 37 -43
187 37 -43
188 43 4
189 43 4
190 43 4
191 43 4
192 43 4
193 -35 -40
194 50 34
195 50 34
196 50 34
197 50 34
198 50 34
199 50 34
200 -14 -20
201 -14 -20
202 15 24
203 15 24
204 15 24
205 15 24
206 15 24
207 -27 -35
208 -6 43
209 -6 43
210 -6 43
211 -6 43
212 49 -21
213 49 -21
214 49 -21
215 -31 -36
216 -31 -36
217 22 -24
218 22 -24
219 22 -24
220 -12 13
221 -12 13
222 -12 13
223 -12 13
224 -12 13
225 1 41
226 1 41
227 1 41
228 1 41
229 -3 36
230 -3 36
231 -3 36
232 -3 36
233 -5 -13
234 -5 -13
235 -5 -13
236 17 44
237 17 44
238 17 44
239 17 44
240 17 44
241 19 39
242 19 39
243 19 39
244 -32 13
245 -32 13
246 -15 -6
247 -15 -6
248 -16 31
249 -16 31
250 -16 31
251 -16 31
252 -16 31
253 27 -43
254 27 -43
255 -14 22
256 -14 22
257 -14 22
258 28 -40
259 28 -40
260 29 39
261 29 39
262 29 39
263 24 38
264 24 38
265 24 38
266 24 38
267 24 38
268 -1 -20
269 -1 -20
270 -19 -24
271 -19 -24
272 -19 -24
273 -19 -24
274 0 -28
275 0 -28
276 0 -28
277 0 -28
278 0 -28
279 0 -28
280 -16 -47
281 -16 -47
282 -16 -47
283 19 0
284 19 0
285 19 0
286 14 -15
287 14 -15
288 13 -14
289 13 -14
DEMAND_SECTION
1 0
2 20
3 10
4 20
5 20
6 1
7 1
8 20
9 10
10 1
11 1
12 1
13 20
14 5
15 1
16 10
17 1
18 1
19 20
20 20
21 5
22 1
23 20
24 20
25 5
26 1
27 1
28 20
29 10
30 5
31 1
32 20
33 10
34 1
35 20
36 10
37 5
38 1
39 10
40 5
41 1
42 20
43 5
44 1
45 1
46 1
47 20
48 1
49 1
50 20
51 20
52 1
53 1
54 20
55 20
56 1
57 20
58 10
59 10
60 1
61 1
62 1
63 1
64 20
65 10
66 5
67 1
68 20
69 5
70 1
71 20
72 10
73 5
74 1
75 1
76 20
77 10
78 1
79 1
80 1
81 1
82 10
83 5
84 1
85 1
86 10
87 5
88 1
89 1
90 20
91 5
92 1
93 20
94 20
95 5
96 1
97 1
98 20
99 5
100 1
101 1
102 1
103 1
104 20
105 10
106 5
107 1
108 1
109 1
110 1
111 20
112 20
113 5
114 20
115 10
116 1
117 1
118 10
119 5
120 1
121 1
122 1
123 1
124 20
125 20
126 5
127 1
128 1
129 10
130 5
131 1
132 1
133 1
134 1
135 20
136 10
137 5
138 1
139 1
140 1
141 1
142 20
143 20
144 20
145 10
146 20
147 1
148 1
149 20
150 20
151 5
152 1
153 1
154 1
155 1
156 20
157 5
158 1
159 1
160 1
161 1
162 20
163 20
164 1
165 1
166 1
167 1
168 10
169 5
170 1
171 1
172 20
173 5
174 1
175 1
176 1
177 20
178 10
179 1
180 1
181 20
182 10
183 20
184 5
185 1
186 1
187 1
188 20
189 20
190 5
191 1
192 1
193 20
194 20
195 10
196 5
197 1
198 1
199 1
200 20
201 10
202 20
203 1
204 1
205 1
206 1
207 20
208 20
209 10
210 5
211 1
212 20
213 10
214 5
215 20
216 1
217 20
218 5
219 1
220 10
221 5
222 1
223 1
224 1
225 20
226 20
227 1
228 1
229 20
230 5
231 1
232 1
233 20
234 1
235 1
236 20
237 10
238 1
239 1
240 1
241 20
242 10
243 1
244 20
245 20
246 20
247 10
248 20
249 20
250 5
251 1
252 1
253 20
254 5
255 20
256 5
257 1
258 20
259 1
260 10
261 1
262 1
263 10
264 5
265 1
266 1
267 1
268 20
269 10
270 10
271 5
272 1
273 1
274 20
275 20
276 1
277 1
278 1
279 1
280 20
281 10
282 5
283 20
284 1
285 1
286 20
287 5
288 20
289 5
DEPOT_SECTION
1
-1
EOF