Normalized Data/p02_12_normalized_split0.sol
288 -2 1 187 190 191 188 189 283 282 284 -9 10 7 111 112 110 268 267 -11 8 280 279 281 215 214 206 269 271 -14 13 12 211 213 212 78 79 76 80 77 75 -19 18 21 20 144 143 146 145 147 -26 23 22 25 24 244 243 -31 32 33 -36 35 37 34 217 218 216 71 70 72 -44 43 45 41 42 193 195 198 196 194 197 260 259 261 266 264 265 263 262 -48 47 46 238 239 236 237 235 242 240 241 -50 51 49 52 122 118 120 119 121 117 57 56 157 159 156 158 -53 55 54 125 126 123 124 127 222 221 219 -67 68 69 86 85 87 88 181 180 192 272 270 -73 74 186 182 184 183 185 131 133 154 151 153 152 149 148 150 132 130 128 129 -84 83 82 81 91 90 89 59 62 61 60 58 274 273 277 276 275 -96 93 92 95 94 155 160 246 245 -101 102 98 100 97 99 208 210 207 209 228 230 229 231 -104 108 103 109 107 106 105 29 28 27 30 16 17 15 256 255 223 220 -113 115 114 -116 -142 141 5 3 6 4 168 169 170 167 -165 163 166 164 162 161 285 286 287 288 -178 179 177 176 249 251 250 247 248 254 -200 199 139 136 138 135 134 140 137 234 233 232 -205 201 204 202 203 173 172 175 174 171 225 224 227 226 -258 257 252 253 65 63 66 64 39 38 40 278 0 





OBJ=
2279.867
BEST_KNOWN=
0.000